\ENCODING=ISO-8859-1
\Problem name: IloCplex

Minimize
 obj1: 0 x10 + 0 x19 + 0 x28 + 0 x37 + 0 x46 + 0 x55 + 0 x56 + 0 x57 + 0 x58
       + 0 x59 + 0 x60 + 0 x61 + 0 x62 + 0 x63 + 0 x64 + 0 x74 + 0 x83 + 0 x92
       + 0 x101 + 0 x110 + 0 x119 + 0 x120 + 0 x121 + 0 x122 + 0 x123 + 0 x124
       + 0 x125 + 0 x126 + 0 x127 + 0 x128 + 0 x135 + 0 x136 + 0 x143 + 0 x144
       + 0 x145 + 0 x146 + 0 x147 + 0 x148 + 0 x149 + 0 x150 + 0 x151 + 0 x152
       + 0 x153 + 0 x154 + 0 x155 + 0 x156 + 0 x157 + 0 x158 + 0 x159 + 0 x160
       + 0 x161 + 0 x162 + 0 x163 + 0 x164 + 0 x165 + 0 x166 + 0 x167 + 0 x168
       + 0 x169 + 0 x170 + 0 x171 + 0 x172 + 0 x173 + 0 x174 + 0 x175 + 0 x176
       + 0 x177 + 0 x178 + 0 x179 + 0 x180 + 0 x186 + 0 x187 + 0 x188 + 0 x189
       + 0 x190 + 0 x191 + 0 x192 + 0 x193 + 0 x194 + 0 x195 + 0 x196 + 0 x197
       + 0 x198 + 0 x199 + 0 x200 + 0 x201 + 0 x202 + 0 x203 + 0 x204 + 0 x205
       + 0 x206 + 0 x207 + 0 x208 + 0 x209 + 0 x210 + 0 x211 + 0 x212 + 0 x213
       + 0 x214 + 0 x215 + 0 x216 + 0 x217 + 0 x218 + 0 x219 + 0 x220 + 0 x221
       + 0 x222 + 0 x223 + 0 x224 + 0 x225 + 0 x226 + 0 x227 + 0 x228 + 0 x229
       + 0 x230 + 0 x231 + 0 x232 + 0 x233 + 0 x234 + 0 x235 + 0 x236 + 0 x237
       + 0 x238 + 0 x239 + 0 x240 + 0 x241 + 0 x242 + 0 x243 + 0 x244 + 0 x245
       + 0 x246 + 0 x247 + 0 x248 + x249 + 0 x250 + 0 x251 + 0 x252 + 0 x253
Subject To
 c1:  x181 - x249 <= 0
 c2:  x182 - x249 <= 0
 c3:  x183 - x249 <= 0
 c4:  x184 - x249 <= 0
 c5:  x185 - x249 <= 0
 c6:  x129 + x137  = 1
 c7:  x130 + x138  = 1
 c8:  x131 + x139  = 1
 c9:  x132 + x140  = 1
 c10: x133 + x141  = 1
 c11: x134 + x142  = 1
 c12: x11 + x12 + x13 + x14 + x15 + x18 + x26 + x34 + x42 + x50 - 2 x130  = 0
 c13: x11 + x18 + x20 + x21 + x22 + x23 + x27 + x35 + x43 + x51 - 2 x131  = 0
 c14: x12 + x20 + x26 + x27 + x29 + x30 + x31 + x36 + x44 + x52 - 2 x132  = 0
 c15: x13 + x21 + x29 + x34 + x35 + x36 + x38 + x39 + x45 + x53 - 2 x133  = 0
 c16: x14 + x22 + x30 + x38 + x42 + x43 + x44 + x45 + x47 + x54 - 2 x134  = 0
 c17: x75 + x76 + x77 + x78 + x79 + x82 + x90 + x98 + x106 + x114 - 2 x138  = 0
 c18: x75 + x82 + x84 + x85 + x86 + x87 + x91 + x99 + x107 + x115 - 2 x139  = 0
 c19: x76 + x84 + x90 + x91 + x93 + x94 + x95 + x100 + x108 + x116 - 2 x140
       = 0
 c20: x77 + x85 + x93 + x98 + x99 + x100 + x102 + x103 + x109 + x117 - 2 x141
       = 0
 c21: x78 + x86 + x94 + x102 + x106 + x107 + x108 + x109 + x111 + x118 - 2 x142
       = 0
 c22: x2 + x3 + x4 + x5 + x6 + x7 + x8 + x9 + x17 + x25 + x33 + x41 + x49
      - x129  = 0
 c23: x2 + x11 + x12 + x13 + x14 + x15 + x16 + x18 + x26 + x34 + x42 + x50
      - x130  = 0
 c24: x3 + x11 + x18 + x20 + x21 + x22 + x23 + x24 + x27 + x35 + x43 + x51
      - x131  = 0
 c25: x4 + x12 + x20 + x26 + x27 + x29 + x30 + x31 + x32 + x36 + x44 + x52
      - x132  = 0
 c26: x5 + x13 + x21 + x29 + x34 + x35 + x36 + x38 + x39 + x40 + x45 + x53
      - x133  = 0
 c27: x6 + x14 + x22 + x30 + x38 + x42 + x43 + x44 + x45 + x47 + x48 + x54
      - x134  = 0
 c28: x66 + x67 + x68 + x69 + x70 + x71 + x72 + x73 + x81 + x89 + x97 + x105
      + x113 - x137  = 0
 c29: x66 + x75 + x76 + x77 + x78 + x79 + x80 + x82 + x90 + x98 + x106 + x114
      - x138  = 0
 c30: x67 + x75 + x82 + x84 + x85 + x86 + x87 + x88 + x91 + x99 + x107 + x115
      - x139  = 0
 c31: x68 + x76 + x84 + x90 + x91 + x93 + x94 + x95 + x96 + x100 + x108 + x116
      - x140  = 0
 c32: x69 + x77 + x85 + x93 + x98 + x99 + x100 + x102 + x103 + x104 + x109
      + x117 - x141  = 0
 c33: x70 + x78 + x86 + x94 + x102 + x106 + x107 + x108 + x109 + x111 + x112
      + x118 - x142  = 0
 c34: x2 + x3 + x4 + x5 + x6 + x7  = 1
 c35: x66 + x67 + x68 + x69 + x70 + x71  = 1
 c36: x8 + x16 + x24 + x32 + x40 + x48  = 1
 c37: x72 + x80 + x88 + x96 + x104 + x112  = 1
 c38: x1 - x2 - x3 - x4 - x5 - x6 - x7 + x9 + x17 + x25 + x33 + x41  = 0
 c39: x2 - x11 - x12 - x13 - x14 - x15 + x18 + x26 + x34 + x42  = 0
 c40: x3 + x11 - x18 - x20 - x21 - x22 - x23 + x27 + x35 + x43  = 0
 c41: x4 + x12 + x20 - x26 - x27 - x29 - x30 - x31 + x36 + x44  = 0
 c42: x5 + x13 + x21 + x29 - x34 - x35 - x36 - x38 - x39 + x45  = 0
 c43: x6 + x14 + x22 + x30 + x38 - x42 - x43 - x44 - x45 - x47  = 0
 c44: x65 - x66 - x67 - x68 - x69 - x70 - x71 + x73 + x81 + x89 + x97 + x105
       = 0
 c45: x66 - x75 - x76 - x77 - x78 - x79 + x82 + x90 + x98 + x106  = 0
 c46: x67 + x75 - x82 - x84 - x85 - x86 - x87 + x91 + x99 + x107  = 0
 c47: x68 + x76 + x84 - x90 - x91 - x93 - x94 - x95 + x100 + x108  = 0
 c48: x69 + x77 + x85 + x93 - x98 - x99 - x100 - x102 - x103 + x109  = 0
 c49: x70 + x78 + x86 + x94 + x102 - x106 - x107 - x108 - x109 - x111  = 0
 i1: x250 = 1 <-> x130 + x131 + x132 + x133 + x134 + x135 => 1
 i2: x251 = 1 <-> x11 + x12 + x13 + x14 + x15 + x18 + x20 + x21 + x22 + x23
     + x26 + x27 + x29 + x30 + x31 + x34 + x35 + x36 + x38 + x39 + x42 + x43
     + x44 + x45 + x47 + x50 + x51 + x52 + x53 + x54 - x130 - x131 - x132
     - x133 - x134 - x135  = -1
 i3: x250 = 1 -> x251  = 1
 i4: x252 = 1 <-> x138 + x139 + x140 + x141 + x142 + x143 => 1
 i5: x253 = 1 <-> x75 + x76 + x77 + x78 + x79 + x82 + x84 + x85 + x86 + x87
     + x90 + x91 + x93 + x94 + x95 + x98 + x99 + x100 + x102 + x103 + x106
     + x107 + x108 + x109 + x111 + x114 + x115 + x116 + x117 + x118 - x138
     - x139 - x140 - x141 - x142 - x143  = -1
 i6: x252 = 1 -> x253  = 1
Bounds
 0 <= x1 <= 1
 0 <= x2 <= 1
 0 <= x3 <= 1
 0 <= x4 <= 1
 0 <= x5 <= 1
 0 <= x6 <= 1
 0 <= x7 <= 1
 0 <= x8 <= 1
 0 <= x9 <= 1
 0 <= x10 <= 1
 0 <= x11 <= 1
 0 <= x12 <= 1
 0 <= x13 <= 1
 0 <= x14 <= 1
 0 <= x15 <= 1
 0 <= x16 <= 1
 0 <= x17 <= 1
 0 <= x18 <= 1
 0 <= x19 <= 1
 0 <= x20 <= 1
 0 <= x21 <= 1
 0 <= x22 <= 1
 0 <= x23 <= 1
 0 <= x24 <= 1
 0 <= x25 <= 1
 0 <= x26 <= 1
 0 <= x27 <= 1
 0 <= x28 <= 1
 0 <= x29 <= 1
 0 <= x30 <= 1
 0 <= x31 <= 1
 0 <= x32 <= 1
 0 <= x33 <= 1
 0 <= x34 <= 1
 0 <= x35 <= 1
 0 <= x36 <= 1
 0 <= x37 <= 1
 0 <= x38 <= 1
 0 <= x39 <= 1
 0 <= x40 <= 1
 0 <= x41 <= 1
 0 <= x42 <= 1
 0 <= x43 <= 1
 0 <= x44 <= 1
 0 <= x45 <= 1
 0 <= x46 <= 1
 0 <= x47 <= 1
 0 <= x48 <= 1
 0 <= x49 <= 1
 0 <= x50 <= 1
 0 <= x51 <= 1
 0 <= x52 <= 1
 0 <= x53 <= 1
 0 <= x54 <= 1
 0 <= x55 <= 1
 0 <= x56 <= 1
 0 <= x57 <= 1
 0 <= x58 <= 1
 0 <= x59 <= 1
 0 <= x60 <= 1
 0 <= x61 <= 1
 0 <= x62 <= 1
 0 <= x63 <= 1
 0 <= x64 <= 1
 0 <= x65 <= 1
 0 <= x66 <= 1
 0 <= x67 <= 1
 0 <= x68 <= 1
 0 <= x69 <= 1
 0 <= x70 <= 1
 0 <= x71 <= 1
 0 <= x72 <= 1
 0 <= x73 <= 1
 0 <= x74 <= 1
 0 <= x75 <= 1
 0 <= x76 <= 1
 0 <= x77 <= 1
 0 <= x78 <= 1
 0 <= x79 <= 1
 0 <= x80 <= 1
 0 <= x81 <= 1
 0 <= x82 <= 1
 0 <= x83 <= 1
 0 <= x84 <= 1
 0 <= x85 <= 1
 0 <= x86 <= 1
 0 <= x87 <= 1
 0 <= x88 <= 1
 0 <= x89 <= 1
 0 <= x90 <= 1
 0 <= x91 <= 1
 0 <= x92 <= 1
 0 <= x93 <= 1
 0 <= x94 <= 1
 0 <= x95 <= 1
 0 <= x96 <= 1
 0 <= x97 <= 1
 0 <= x98 <= 1
 0 <= x99 <= 1
 0 <= x100 <= 1
 0 <= x101 <= 1
 0 <= x102 <= 1
 0 <= x103 <= 1
 0 <= x104 <= 1
 0 <= x105 <= 1
 0 <= x106 <= 1
 0 <= x107 <= 1
 0 <= x108 <= 1
 0 <= x109 <= 1
 0 <= x110 <= 1
 0 <= x111 <= 1
 0 <= x112 <= 1
 0 <= x113 <= 1
 0 <= x114 <= 1
 0 <= x115 <= 1
 0 <= x116 <= 1
 0 <= x117 <= 1
 0 <= x118 <= 1
 0 <= x119 <= 1
 0 <= x120 <= 1
 0 <= x121 <= 1
 0 <= x122 <= 1
 0 <= x123 <= 1
 0 <= x124 <= 1
 0 <= x125 <= 1
 0 <= x126 <= 1
 0 <= x127 <= 1
 0 <= x128 <= 1
 0 <= x129 <= 1
 0 <= x130 <= 1
 0 <= x131 <= 1
 0 <= x132 <= 1
 0 <= x133 <= 1
 0 <= x134 <= 1
 0 <= x135 <= 1
 0 <= x136 <= 1
 0 <= x137 <= 1
 0 <= x138 <= 1
 0 <= x139 <= 1
 0 <= x140 <= 1
 0 <= x141 <= 1
 0 <= x142 <= 1
 0 <= x143 <= 1
 0 <= x144 <= 1
 0 <= x187 <= 1
 0 <= x188 <= 1
 0 <= x189 <= 1
 0 <= x190 <= 1
 0 <= x191 <= 1
 0 <= x192 <= 1
 0 <= x193 <= 1
 0 <= x194 <= 1
 0 <= x195 <= 1
 0 <= x196 <= 1
 0 <= x197 <= 1
 0 <= x198 <= 1
 0 <= x199 <= 1
 0 <= x200 <= 1
 0 <= x201 <= 1
 0 <= x202 <= 1
 0 <= x203 <= 1
 0 <= x204 <= 1
 0 <= x205 <= 1
 0 <= x206 <= 1
 0 <= x207 <= 1
 0 <= x208 <= 1
 0 <= x209 <= 1
 0 <= x210 <= 1
 0 <= x211 <= 1
 0 <= x212 <= 1
 0 <= x213 <= 1
 0 <= x214 <= 1
 0 <= x215 <= 1
 0 <= x216 <= 1
 0 <= x217 <= 1
 0 <= x218 <= 1
 0 <= x219 <= 1
 0 <= x220 <= 1
 0 <= x221 <= 1
 0 <= x222 <= 1
 0 <= x223 <= 1
 0 <= x224 <= 1
 0 <= x225 <= 1
 0 <= x226 <= 1
 0 <= x227 <= 1
 0 <= x228 <= 1
 0 <= x229 <= 1
 0 <= x230 <= 1
 0 <= x231 <= 1
 0 <= x232 <= 1
 0 <= x233 <= 1
 0 <= x234 <= 1
 0 <= x235 <= 1
 0 <= x236 <= 1
 0 <= x237 <= 1
 0 <= x238 <= 1
 0 <= x239 <= 1
 0 <= x240 <= 1
 0 <= x241 <= 1
 0 <= x242 <= 1
 0 <= x250 <= 1
 0 <= x251 <= 1
 0 <= x252 <= 1
 0 <= x253 <= 1
Binaries
 x1  x2  x3  x4  x5  x6  x7  x8  x9  x10  x11  x12  x13  x14  x15  x16  x17 
 x18  x19  x20  x21  x22  x23  x24  x25  x26  x27  x28  x29  x30  x31  x32 
 x33  x34  x35  x36  x37  x38  x39  x40  x41  x42  x43  x44  x45  x46  x47 
 x48  x49  x50  x51  x52  x53  x54  x55  x56  x57  x58  x59  x60  x61  x62 
 x63  x64  x65  x66  x67  x68  x69  x70  x71  x72  x73  x74  x75  x76  x77 
 x78  x79  x80  x81  x82  x83  x84  x85  x86  x87  x88  x89  x90  x91  x92 
 x93  x94  x95  x96  x97  x98  x99  x100  x101  x102  x103  x104  x105  x106 
 x107  x108  x109  x110  x111  x112  x113  x114  x115  x116  x117  x118  x119 
 x120  x121  x122  x123  x124  x125  x126  x127  x128  x129  x130  x131  x132 
 x133  x134  x135  x136  x137  x138  x139  x140  x141  x142  x143  x144  x187 
 x188  x189  x190  x191  x192  x193  x194  x195  x196  x197  x198  x199  x200 
 x201  x202  x203  x204  x205  x206  x207  x208  x209  x210  x211  x212  x213 
 x214  x215  x216  x217  x218  x219  x220  x221  x222  x223  x224  x225  x226 
 x227  x228  x229  x230  x231  x232  x233  x234  x235  x236  x237  x238  x239 
 x240  x241  x242  x250  x251  x252  x253 
End
